row=9;
column=9;

Board=[|3,9,0,0,0,0,6,8,1|5,0,1,8,0,0,0,7,0|7,2,8,0,0,0,0,0,0|9,8,5,7,0,0,3,0,0|6,1,3,2,0,8,5,0,7|4,7,0,3,0,0,8,0,6|8,4,6,0,5,7,0,0,0|2,0,0,6,0,1,0,0,0|0,0,0,0,0,0,9,6,8|];
OE=[|1,1,0,1,1,0,0,0,1|1,0,1,0,1,0,0,1,1|1,0,0,1,0,1,0,1,1|1,0,1,1,1,0,1,0,0|0,1,1,0,0,0,1,1,1|0,1,0,1,1,1,0,1,0|0,0,0,1,1,1,1,0,1|0,1,1,0,0,1,1,1,0|1,1,1,0,0,1,1,0,0|];
